DIMENSION: 20
 1 37.44 -25.40
 2 38.43 -9.08
 3 41.11 -8.36
 4 37.23 -5.59
 5 36.32 -6.18
 6 36.43 -4.25
 7 37.13 -3.41
 8 37.53 -4.46
 9 38.21 -0.29
 10 39.28 -0.22
 11 41.23 2.11
 12 41.38 -0.53
 13 40.24 -3.41
 14 41.39 -4.43
 15 43.15 -2.58
 16 43.22 -8.23
 17 38.54 1.26
 18 39.34 2.39
 19 42.30 1.31
 20 44.50 -0.34
